40
1 0 5
2 0 3
2 1 4
3 0 3
3 1 5
3 2 5
4 0 5
4 1 5
4 2 4
4 3 5
5 0 4
5 1 1
5 2 3
5 3 1
5 4 3
6 0 3
6 1 4
6 2 1
6 3 2
6 4 1
6 5 1
7 0 4
7 1 2
7 2 4
7 3 3
7 4 3
7 5 2
7 6 1
8 0 3
8 1 5
8 2 2
8 3 2
8 4 4
8 5 3
8 6 3
8 7 3
9 0 1
9 1 5
9 2 2
9 3 4
9 4 1
9 5 3
9 6 2
9 7 4
9 8 5
10 0 1
10 1 2
10 2 3
10 3 1
10 4 5
10 5 2
10 6 1
10 7 2
10 8 1
10 9 5
11 0 5
11 1 3
11 2 1
11 3 1
11 4 1
11 5 1
11 6 1
11 7 3
11 8 2
11 9 3
11 10 5
12 0 1
12 1 3
12 2 3
12 3 5
12 4 5
12 5 1
12 6 1
12 7 5
12 8 3
12 9 3
12 10 2
12 11 1
13 0 3
13 1 4
13 2 1
13 3 1
13 4 1
13 5 4
13 6 3
13 7 5
13 8 3
13 9 2
13 10 2
13 11 2
13 12 3
14 0 2
14 1 1
14 2 3
14 3 2
14 4 4
14 5 2
14 6 2
14 7 1
14 8 1
14 9 1
14 10 3
14 11 1
14 12 1
14 13 5
15 0 3
15 1 5
15 2 1
15 3 1
15 4 2
15 5 3
15 6 1
15 7 2
15 8 2
15 9 4
15 10 1
15 11 1
15 12 3
15 13 4
15 14 4
16 0 5
16 1 4
16 2 1
16 3 3
16 4 1
16 5 1
16 6 5
16 7 2
16 8 4
16 9 4
16 10 5
16 11 2
16 12 5
16 13 1
16 14 2
16 15 1
17 0 2
17 1 1
17 2 4
17 3 4
17 4 3
17 5 3
17 6 3
17 7 3
17 8 5
17 9 1
17 10 4
17 11 5
17 12 4
17 13 3
17 14 3
17 15 5
17 16 5
18 0 5
18 1 3
18 2 5
18 3 3
18 4 1
18 5 1
18 6 2
18 7 5
18 8 2
18 9 1
18 10 4
18 11 1
18 12 1
18 13 3
18 14 5
18 15 3
18 16 4
18 17 2
19 0 1
19 1 4
19 2 2
19 3 4
19 4 1
19 5 5
19 6 4
19 7 3
19 8 4
19 9 5
19 10 1
19 11 2
19 12 5
19 13 2
19 14 5
19 15 3
19 16 4
19 17 5
19 18 5
20 0 1
20 1 5
20 2 5
20 3 3
20 4 4
20 5 4
20 6 3
20 7 2
20 8 2
20 9 4
20 10 1
20 11 1
20 12 2
20 13 4
20 14 2
20 15 3
20 16 4
20 17 1
20 18 2
20 19 5
21 0 2
21 1 2
21 2 1
21 3 3
21 4 2
21 5 2
21 6 1
21 7 5
21 8 2
21 9 1
21 10 1
21 11 1
21 12 3
21 13 5
21 14 5
21 15 5
21 16 5
21 17 4
21 18 4
21 19 2
21 20 4
22 0 2
22 1 5
22 2 3
22 3 2
22 4 5
22 5 4
22 6 2
22 7 2
22 8 5
22 9 4
22 10 1
22 11 4
22 12 3
22 13 5
22 14 4
22 15 3
22 16 4
22 17 1
22 18 3
22 19 2
22 20 2
22 21 5
23 0 2
23 1 5
23 2 1
23 3 4
23 4 1
23 5 2
23 6 4
23 7 1
23 8 4
23 9 5
23 10 4
23 11 1
23 12 2
23 13 4
23 14 1
23 15 1
23 16 3
23 17 5
23 18 3
23 19 3
23 20 5
23 21 4
23 22 2
24 0 4
24 1 3
24 2 2
24 3 4
24 4 5
24 5 3
24 6 3
24 7 2
24 8 1
24 9 2
24 10 1
24 11 4
24 12 5
24 13 2
24 14 4
24 15 1
24 16 4
24 17 2
24 18 1
24 19 2
24 20 1
24 21 3
24 22 5
24 23 5
25 0 3
25 1 2
25 2 5
25 3 4
25 4 5
25 5 1
25 6 1
25 7 5
25 8 1
25 9 4
25 10 5
25 11 5
25 12 2
25 13 1
25 14 3
25 15 2
25 16 5
25 17 4
25 18 4
25 19 5
25 20 1
25 21 4
25 22 2
25 23 1
25 24 5
26 0 3
26 1 2
26 2 2
26 3 5
26 4 4
26 5 4
26 6 5
26 7 3
26 8 5
26 9 3
26 10 3
26 11 5
26 12 1
26 13 1
26 14 3
26 15 1
26 16 5
26 17 3
26 18 1
26 19 5
26 20 2
26 21 3
26 22 2
26 23 5
26 24 4
26 25 3
27 0 3
27 1 5
27 2 2
27 3 2
27 4 4
27 5 2
27 6 2
27 7 3
27 8 4
27 9 2
27 10 2
27 11 2
27 12 1
27 13 1
27 14 5
27 15 4
27 16 5
27 17 2
27 18 3
27 19 3
27 20 1
27 21 2
27 22 2
27 23 2
27 24 1
27 25 4
27 26 1
28 0 2
28 1 5
28 2 4
28 3 1
28 4 3
28 5 1
28 6 1
28 7 5
28 8 5
28 9 5
28 10 1
28 11 5
28 12 3
28 13 1
28 14 5
28 15 1
28 16 2
28 17 5
28 18 3
28 19 3
28 20 5
28 21 5
28 22 3
28 23 5
28 24 2
28 25 4
28 26 4
28 27 1
29 0 5
29 1 4
29 2 2
29 3 5
29 4 1
29 5 1
29 6 2
29 7 2
29 8 2
29 9 4
29 10 1
29 11 5
29 12 2
29 13 4
29 14 5
29 15 3
29 16 4
29 17 4
29 18 1
29 19 5
29 20 1
29 21 4
29 22 5
29 23 5
29 24 4
29 25 3
29 26 3
29 27 5
29 28 4
30 0 5
30 1 4
30 2 3
30 3 1
30 4 3
30 5 4
30 6 4
30 7 4
30 8 4
30 9 4
30 10 4
30 11 5
30 12 1
30 13 1
30 14 5
30 15 2
30 16 3
30 17 5
30 18 1
30 19 2
30 20 3
30 21 1
30 22 3
30 23 1
30 24 1
30 25 3
30 26 1
30 27 2
30 28 5
30 29 3
31 0 5
31 1 2
31 2 4
31 3 5
31 4 1
31 5 2
31 6 5
31 7 3
31 8 5
31 9 3
31 10 5
31 11 2
31 12 5
31 13 2
31 14 1
31 15 4
31 16 5
31 17 5
31 18 2
31 19 3
31 20 3
31 21 4
31 22 3
31 23 4
31 24 4
31 25 2
31 26 2
31 27 4
31 28 1
31 29 4
31 30 5
32 0 4
32 1 2
32 2 1
32 3 2
32 4 4
32 5 2
32 6 4
32 7 5
32 8 5
32 9 5
32 10 2
32 11 3
32 12 2
32 13 5
32 14 5
32 15 1
32 16 1
32 17 1
32 18 5
32 19 3
32 20 1
32 21 2
32 22 1
32 23 2
32 24 3
32 25 3
32 26 2
32 27 1
32 28 4
32 29 4
32 30 3
32 31 5
33 0 4
33 1 4
33 2 2
33 3 3
33 4 3
33 5 3
33 6 1
33 7 5
33 8 2
33 9 1
33 10 4
33 11 3
33 12 4
33 13 5
33 14 1
33 15 3
33 16 3
33 17 1
33 18 5
33 19 3
33 20 2
33 21 4
33 22 3
33 23 3
33 24 1
33 25 3
33 26 5
33 27 4
33 28 1
33 29 2
33 30 2
33 31 3
33 32 2
34 0 1
34 1 3
34 2 3
34 3 2
34 4 5
34 5 4
34 6 3
34 7 4
34 8 2
34 9 1
34 10 1
34 11 5
34 12 5
34 13 2
34 14 1
34 15 2
34 16 2
34 17 2
34 18 2
34 19 3
34 20 1
34 21 4
34 22 3
34 23 2
34 24 4
34 25 2
34 26 1
34 27 2
34 28 3
34 29 1
34 30 5
34 31 2
34 32 4
34 33 4
35 0 3
35 1 2
35 2 2
35 3 3
35 4 3
35 5 4
35 6 3
35 7 2
35 8 2
35 9 1
35 10 2
35 11 2
35 12 5
35 13 3
35 14 4
35 15 1
35 16 3
35 17 4
35 18 4
35 19 4
35 20 4
35 21 5
35 22 2
35 23 4
35 24 3
35 25 4
35 26 4
35 27 4
35 28 2
35 29 5
35 30 1
35 31 3
35 32 2
35 33 1
35 34 1
36 0 1
36 1 3
36 2 1
36 3 3
36 4 4
36 5 1
36 6 3
36 7 1
36 8 1
36 9 4
36 10 1
36 11 4
36 12 3
36 13 2
36 14 4
36 15 3
36 16 5
36 17 3
36 18 3
36 19 3
36 20 2
36 21 3
36 22 2
36 23 4
36 24 5
36 25 1
36 26 5
36 27 4
36 28 3
36 29 5
36 30 5
36 31 4
36 32 2
36 33 3
36 34 3
36 35 5
37 0 5
37 1 4
37 2 5
37 3 3
37 4 2
37 5 4
37 6 2
37 7 3
37 8 2
37 9 5
37 10 3
37 11 4
37 12 4
37 13 4
37 14 2
37 15 3
37 16 1
37 17 4
37 18 4
37 19 4
37 20 4
37 21 2
37 22 2
37 23 4
37 24 2
37 25 3
37 26 3
37 27 5
37 28 5
37 29 2
37 30 4
37 31 5
37 32 2
37 33 5
37 34 5
37 35 3
37 36 5
38 0 2
38 1 4
38 2 1
38 3 2
38 4 4
38 5 1
38 6 2
38 7 2
38 8 2
38 9 5
38 10 1
38 11 5
38 12 5
38 13 1
38 14 1
38 15 5
38 16 1
38 17 1
38 18 1
38 19 4
38 20 1
38 21 1
38 22 4
38 23 2
38 24 2
38 25 4
38 26 3
38 27 3
38 28 4
38 29 1
38 30 1
38 31 1
38 32 3
38 33 5
38 34 5
38 35 5
38 36 4
38 37 3
39 0 4
39 1 5
39 2 5
39 3 2
39 4 5
39 5 4
39 6 4
39 7 5
39 8 4
39 9 2
39 10 3
39 11 5
39 12 1
39 13 3
39 14 3
39 15 2
39 16 2
39 17 5
39 18 3
39 19 2
39 20 1
39 21 4
39 22 2
39 23 4
39 24 2
39 25 1
39 26 5
39 27 3
39 28 1
39 29 4
39 30 3
39 31 5
39 32 4
39 33 3
39 34 4
39 35 1
39 36 3
39 37 4
39 38 3
